db/inputs/15921150129511200193210253072230820530.smt2
(set-logic QF_FP)
(declare-const x0 (_ FloatingPoint 11 53))
(declare-const x1 (_ FloatingPoint 11 53))
(declare-const x2 (_ FloatingPoint 11 53))
(declare-const x3 (_ FloatingPoint 11 53))
(declare-const x4 (_ FloatingPoint 11 53))
(declare-const x5 (_ FloatingPoint 11 53))
(declare-const x6 (_ FloatingPoint 11 53))
(assert (fp.lt (fp.add RNE (fp.add RNE (fp.add RNE (fp.sub RNE x5 x5) (fp.add RNE x6 x4)) (fp.mul RNE (fp.neg x4) (fp.neg x2))) (fp.div RNE (fp.div RNE (fp.mul RNE x2 x1) (fp.div RNE x2 x5)) (fp.mul RNE (fp.mul RNE x3 x0) (fp.div RNE x0 x1)))) (fp.neg (fp.neg (fp.mul RNE (fp.div RNE x3 x2) (fp.div RNE x4 x5))))))
(check-sat)
