db/data/15921150129511200193210253072230820530.z3.out
-------------------
2500.119294741
